32      4       
10      10      10      10      
0       0       0       0       0       3       2       3       10      
8       1       1       0       1       5       5       6       7       9       11      
2       4       3       0       4       5       4       11      15      16      19      
10      3       5       0       4       3       7       9       18      
5       6       0       1       4       3       8       12      13      
6       4       4       0       6       4       14      18      19      21      
2       4       6       0       3       2       8       12      
3       3       4       0       3       3       14      20      21      
2       3       4       2       0       4       20      21      22      23      
3       4       0       4       7       3       12      21      22      
4       0       4       3       3       3       20      22      26      
6       4       5       4       0       3       20      24      26      
6       0       8       1       6       3       22      23      26      
9       5       5       0       5       2       17      29      
5       2       0       1       3       2       22      26      
5       5       5       1       0       2       24      26      
9       2       2       9       0       1       22      
3       2       0       3       1       1       22      
7       3       4       0       4       1       20      
7       0       4       3       4       2       25      29      
1       6       6       0       5       2       25      26      
1       7       0       4       5       1       24      
6       4       6       6       0       1       24      
5       6       5       5       0       1       25      
4       0       4       7       3       1       27      
1       2       0       6       3       1       27      
3       4       2       0       4       2       28      31      
4       4       0       4       7       1       30      
6       6       1       0       2       1       30      
6       5       2       0       5       1       32      
4       5       2       8       0       1       32      
0       0       0       0       0       0       
